$molecule
0 1
H 0.0 0.0 0.0
H 0.0 0.0 0.74
$end

$rem
jobtype = opt
exchange = b3lyp
basis = sto-3g
$end

@@@

$molecule
	read
$end

$rem
	jobtype freq
	method b3lyp
	basis sto-3g
$end