$molecule
0 1
H 0.0 0.0 0.0
H 0.0 0.0 0.74
$end

$rem
jobtype = sp
exchange = hf
basis = sto-3g
$end